(set-info :Origin "This instance was generated by: BanditFuzz-- an RL fuzzer for SMT solvers" )
(set-info :Author "Joe Scott, Fed Mora, Vijay Ganesh" )
(set-info :Contact "Joe Scott, joseph.scott@uwaterloo.ca")
(set-logic QF_BV)
(declare-const bool_0 Bool)
(declare-const bool_1 Bool)
(declare-const bool_2 Bool)
(declare-const bool_3 Bool)
(declare-const bool_4 Bool)
(declare-const bv_0 (_ BitVec 32))
(declare-const bv_1 (_ BitVec 32))
(declare-const bv_2 (_ BitVec 32))
(declare-const bv_3 (_ BitVec 32))
(declare-const bv_4 (_ BitVec 32))
(assert (bvule (bvashr (bvadd #xad208b14  #x8a77e986 ) (bvsmod #xa95a0d41  bv_0)) (bvsmod (bvurem bv_0 #x4d50cc61 ) (bvurem bv_0 #xe22ffdbb ))))
(assert (and (bvsgt (bvsrem bv_1 #x0677aaec ) (bvmul #x5869a73e  #x3f439c6e )) (not (bvule #xad6e9662  #x7d585971 ))))
(assert (bvsgt (bvlshr (bvnand #x3e5d340b  bv_3) (bvand #x8c8d09df  bv_2)) (bvnand (bvnand #x87d622ee  bv_2) (bvsrem bv_3 #xe75e57b7 ))))
(assert (bvsgt (bvashr (bvnor #x2aee0381  bv_3) (bvsmod #x621a0ba4  bv_3)) (bvudiv (bvsdiv #xb4c255bf  bv_1) (bvshl bv_2 bv_0))))
(assert (and (bvuge (bvxnor bv_4 bv_1) (bvudiv #xb142b83b  #x53873308 )) (not (bvsge bv_3 bv_1))))
(check-sat)
(exit)
